
Gurobi 6.5.2 (win64) logging started 07/24/16 17:30:10


Gurobi 6.5.2 (win64) logging started 07/24/16 17:30:10

Optimize a model with 1844 rows, 260 columns and 3886 nonzeros
Coefficient statistics:
  Matrix range    [1e+00, 1e+00]
  Objective range [2e+00, 3e+02]
  Bounds range    [1e+00, 1e+00]
  RHS range       [1e+00, 1e+00]
Found heuristic solution: objective -0
Presolve removed 1731 rows and 37 columns
Presolve time: 0.00s
Presolved: 113 rows, 223 columns, 754 nonzeros
Variable types: 0 continuous, 223 integer (223 binary)

Root relaxation: objective 1.738000e+03, 113 iterations, 0.00 seconds

    Nodes    |    Current Node    |     Objective Bounds      |     Work
 Expl Unexpl |  Obj  Depth IntInf | Incumbent    BestBd   Gap | It/Node Time

*    0     0               0    1738.0000000 1738.00000  0.00%     -    0s

Explored 0 nodes (113 simplex iterations) in 0.00 seconds
Thread count was 8 (of 8 available processors)

Optimal solution found (tolerance 1.00e-04)
Best objective 1.738000000000e+03, best bound 1.738000000000e+03, gap 0.0%

Wrote requested result file 'H1\instance14\\Results14.lp'

